;; translated from ./ctigar/dillig28.c.vmt
;; original benchmark available at: https://es-static.fbk.eu/people/griggio/ic3ia/index.html
;; author: Alberto Griggio <griggio@fbk.eu>
(set-logic HORN)
(declare-fun state (Bool Bool Bool Bool Int Int Int) Bool)
(assert (forall ((|.s.0| Bool) (|.s.2| Bool) (|.s.1| Bool) (|.s.0.next| Bool) (|.s.1.next| Bool) (|.s.2.next| Bool) (|.s.3.next| Bool) (|main.x.next| Int) (|main.x| Int) (|main.n.next| Int) (|main.n| Int) (|main.y.next| Int) (|main.y| Int) (|.inputVar.0| Int) (|.s.3| Bool)) (=> (let ((.def_17 (not .s.3)))
(let ((.def_14 (not .s.2)))
(let ((.def_10 (not .s.1)))
(let ((.def_12 (and .def_10 .s.0)))
(let ((.def_15 (and .def_12 .def_14)))
(let ((.def_18 (and .def_15 .def_17)))
.def_18)))))) (state |.s.1| |.s.0| |.s.2| |.s.3| |main.x| |main.n| |main.y|))))
(assert (forall ((|.s.0| Bool) (|.s.2| Bool) (|.s.1| Bool) (|.s.0.next| Bool) (|.s.1.next| Bool) (|.s.2.next| Bool) (|.s.3.next| Bool) (|main.x.next| Int) (|main.x| Int) (|main.n.next| Int) (|main.n| Int) (|main.y.next| Int) (|main.y| Int) (|.inputVar.0| Int) (|.s.3| Bool)) (=> (and (state |.s.1| |.s.0| |.s.2| |.s.3| |main.x| |main.n| |main.y|) (let ((.def_43 (not .s.0)))
(let ((.def_10 (not .s.1)))
(let ((.def_69 (and .def_10 .def_43)))
(let ((.def_14 (not .s.2)))
(let ((.def_117 (and .def_14 .def_69)))
(let ((.def_17 (not .s.3)))
(let ((.def_209 (and .def_17 .def_117)))
(let ((.def_210 (not .def_209)))
(let ((.def_51 (not .s.0.next)))
(let ((.def_50 (not .s.1.next)))
(let ((.def_52 (and .def_50 .def_51)))
(let ((.def_49 (not .s.2.next)))
(let ((.def_53 (and .def_49 .def_52)))
(let ((.def_48 (not .s.3.next)))
(let ((.def_54 (and .def_48 .def_53)))
(let ((.def_32 (= main.x main.x.next)))
(let ((.def_55 (and .def_32 .def_54)))
(let ((.def_36 (= main.n main.n.next)))
(let ((.def_56 (and .def_36 .def_55)))
(let ((.def_40 (= main.y main.y.next)))
(let ((.def_57 (and .def_40 .def_56)))
(let ((.def_211 (or .def_57 .def_210)))
(let ((.def_204 (= main.n.next 0)))
(let ((.def_62 (and .s.1.next .def_51)))
(let ((.def_157 (and .def_49 .def_62)))
(let ((.def_165 (and .def_48 .def_157)))
(let ((.def_205 (and .def_165 .def_204)))
(let ((.def_203 (= main.y.next 0)))
(let ((.def_206 (and .def_203 .def_205)))
(let ((.def_202 (= main.x.next 0)))
(let ((.def_207 (and .def_202 .def_206)))
(let ((.def_12 (and .def_10 .s.0)))
(let ((.def_15 (and .def_12 .def_14)))
(let ((.def_18 (and .def_15 .def_17)))
(let ((.def_201 (not .def_18)))
(let ((.def_208 (or .def_201 .def_207)))
(let ((.def_212 (and .def_208 .def_211)))
(let ((.def_189 (= .inputVar.0 0)))
(let ((.def_197 (not .def_189)))
(let ((.def_44 (and .s.1 .def_43)))
(let ((.def_90 (and .def_14 .def_44)))
(let ((.def_186 (and .def_17 .def_90)))
(let ((.def_198 (and .def_186 .def_197)))
(let ((.def_199 (not .def_198)))
(let ((.def_63 (and .s.2.next .def_62)))
(let ((.def_112 (and .def_48 .def_63)))
(let ((.def_113 (and .def_32 .def_112)))
(let ((.def_114 (and .def_36 .def_113)))
(let ((.def_115 (and .def_40 .def_114)))
(let ((.def_200 (or .def_115 .def_199)))
(let ((.def_213 (and .def_200 .def_212)))
(let ((.def_25 (and .s.0.next .s.1.next)))
(let ((.def_104 (and .def_25 .def_49)))
(let ((.def_192 (and .def_48 .def_104)))
(let ((.def_193 (and .def_32 .def_192)))
(let ((.def_194 (and .def_36 .def_193)))
(let ((.def_195 (and .def_40 .def_194)))
(let ((.def_190 (and .def_186 .def_189)))
(let ((.def_191 (not .def_190)))
(let ((.def_196 (or .def_191 .def_195)))
(let ((.def_214 (and .def_196 .def_213)))
(let ((.def_95 (and .s.2.next .def_52)))
(let ((.def_181 (and .def_48 .def_95)))
(let ((.def_133 (* (- 1) main.x.next)))
(let ((.def_134 (+ main.x .def_133)))
(let ((.def_180 (= .def_134 (- 1))))
(let ((.def_182 (and .def_180 .def_181)))
(let ((.def_183 (and .def_36 .def_182)))
(let ((.def_184 (and .def_40 .def_183)))
(let ((.def_19 (and .s.1 .s.0)))
(let ((.def_86 (and .def_14 .def_19)))
(let ((.def_178 (and .def_17 .def_86)))
(let ((.def_179 (not .def_178)))
(let ((.def_185 (or .def_179 .def_184)))
(let ((.def_215 (and .def_185 .def_214)))
(let ((.def_79 (and .s.0.next .def_50)))
(let ((.def_80 (and .s.2.next .def_79)))
(let ((.def_173 (and .def_48 .def_80)))
(let ((.def_122 (* (- 1) main.y.next)))
(let ((.def_123 (+ main.y .def_122)))
(let ((.def_172 (= .def_123 (- 1))))
(let ((.def_174 (and .def_172 .def_173)))
(let ((.def_175 (and .def_32 .def_174)))
(let ((.def_176 (and .def_36 .def_175)))
(let ((.def_70 (and .s.2 .def_69)))
(let ((.def_170 (and .def_17 .def_70)))
(let ((.def_171 (not .def_170)))
(let ((.def_177 (or .def_171 .def_176)))
(let ((.def_216 (and .def_177 .def_215)))
(let ((.def_166 (and .def_32 .def_165)))
(let ((.def_167 (and .def_36 .def_166)))
(let ((.def_168 (and .def_40 .def_167)))
(let ((.def_59 (and .def_12 .s.2)))
(let ((.def_163 (and .def_17 .def_59)))
(let ((.def_164 (not .def_163)))
(let ((.def_169 (or .def_164 .def_168)))
(let ((.def_217 (and .def_169 .def_216)))
(let ((.def_158 (and .s.3.next .def_157)))
(let ((.def_159 (and .def_32 .def_158)))
(let ((.def_160 (and .def_36 .def_159)))
(let ((.def_161 (and .def_40 .def_160)))
(let ((.def_142 (* (- 1) main.n)))
(let ((.def_143 (+ main.x .def_142)))
(let ((.def_145 (<= .def_143 (- 1))))
(let ((.def_144 (<= 1 .def_143)))
(let ((.def_146 (or .def_144 .def_145)))
(let ((.def_154 (not .def_146)))
(let ((.def_45 (and .s.2 .def_44)))
(let ((.def_141 (and .def_17 .def_45)))
(let ((.def_155 (and .def_141 .def_154)))
(let ((.def_156 (not .def_155)))
(let ((.def_162 (or .def_156 .def_161)))
(let ((.def_218 (and .def_162 .def_217)))
(let ((.def_27 (and .def_25 .s.2.next)))
(let ((.def_149 (and .def_27 .def_48)))
(let ((.def_150 (and .def_32 .def_149)))
(let ((.def_151 (and .def_36 .def_150)))
(let ((.def_152 (and .def_40 .def_151)))
(let ((.def_147 (and .def_141 .def_146)))
(let ((.def_148 (not .def_147)))
(let ((.def_153 (or .def_148 .def_152)))
(let ((.def_219 (and .def_153 .def_218)))
(let ((.def_136 (and .s.3.next .def_53)))
(let ((.def_135 (= .def_134 1)))
(let ((.def_137 (and .def_135 .def_136)))
(let ((.def_138 (and .def_36 .def_137)))
(let ((.def_139 (and .def_40 .def_138)))
(let ((.def_20 (and .s.2 .def_19)))
(let ((.def_131 (and .def_17 .def_20)))
(let ((.def_132 (not .def_131)))
(let ((.def_140 (or .def_132 .def_139)))
(let ((.def_220 (and .def_140 .def_219)))
(let ((.def_125 (and .def_49 .def_79)))
(let ((.def_126 (and .s.3.next .def_125)))
(let ((.def_124 (= .def_123 1)))
(let ((.def_127 (and .def_124 .def_126)))
(let ((.def_128 (and .def_32 .def_127)))
(let ((.def_129 (and .def_36 .def_128)))
(let ((.def_118 (and .s.3 .def_117)))
(let ((.def_119 (not .def_118)))
(let ((.def_130 (or .def_119 .def_129)))
(let ((.def_221 (and .def_130 .def_220)))
(let ((.def_110 (and .def_15 .s.3)))
(let ((.def_111 (not .def_110)))
(let ((.def_116 (or .def_111 .def_115)))
(let ((.def_222 (and .def_116 .def_221)))
(let ((.def_105 (and .s.3.next .def_104)))
(let ((.def_106 (and .def_32 .def_105)))
(let ((.def_107 (and .def_36 .def_106)))
(let ((.def_108 (and .def_40 .def_107)))
(let ((.def_92 (= main.x main.n)))
(let ((.def_101 (not .def_92)))
(let ((.def_91 (and .s.3 .def_90)))
(let ((.def_102 (and .def_91 .def_101)))
(let ((.def_103 (not .def_102)))
(let ((.def_109 (or .def_103 .def_108)))
(let ((.def_223 (and .def_109 .def_222)))
(let ((.def_96 (and .s.3.next .def_95)))
(let ((.def_97 (and .def_32 .def_96)))
(let ((.def_98 (and .def_36 .def_97)))
(let ((.def_99 (and .def_40 .def_98)))
(let ((.def_93 (and .def_91 .def_92)))
(let ((.def_94 (not .def_93)))
(let ((.def_100 (or .def_94 .def_99)))
(let ((.def_224 (and .def_100 .def_223)))
(let ((.def_87 (and .s.3 .def_86)))
(let ((.def_88 (not .def_87)))
(let ((.def_89 (or .def_57 .def_88)))
(let ((.def_225 (and .def_89 .def_224)))
(let ((.def_81 (and .s.3.next .def_80)))
(let ((.def_82 (and .def_32 .def_81)))
(let ((.def_83 (and .def_36 .def_82)))
(let ((.def_84 (and .def_40 .def_83)))
(let ((.def_72 (= main.n main.y)))
(let ((.def_71 (and .s.3 .def_70)))
(let ((.def_77 (and .def_71 .def_72)))
(let ((.def_78 (not .def_77)))
(let ((.def_85 (or .def_78 .def_84)))
(let ((.def_226 (and .def_85 .def_225)))
(let ((.def_73 (not .def_72)))
(let ((.def_74 (and .def_71 .def_73)))
(let ((.def_75 (not .def_74)))
(let ((.def_29 (and .def_27 .s.3.next)))
(let ((.def_33 (and .def_29 .def_32)))
(let ((.def_37 (and .def_33 .def_36)))
(let ((.def_41 (and .def_37 .def_40)))
(let ((.def_76 (or .def_41 .def_75)))
(let ((.def_227 (and .def_76 .def_226)))
(let ((.def_64 (and .s.3.next .def_63)))
(let ((.def_65 (and .def_32 .def_64)))
(let ((.def_66 (and .def_36 .def_65)))
(let ((.def_67 (and .def_40 .def_66)))
(let ((.def_60 (and .s.3 .def_59)))
(let ((.def_61 (not .def_60)))
(let ((.def_68 (or .def_61 .def_67)))
(let ((.def_228 (and .def_68 .def_227)))
(let ((.def_46 (and .s.3 .def_45)))
(let ((.def_47 (not .def_46)))
(let ((.def_58 (or .def_47 .def_57)))
(let ((.def_229 (and .def_58 .def_228)))
(let ((.def_21 (and .s.3 .def_20)))
(let ((.def_22 (not .def_21)))
(let ((.def_42 (or .def_22 .def_41)))
(let ((.def_230 (and .def_42 .def_229)))
.def_230))))))))))))))))))))))))))))))))))))))))))))))))))))))))))))))))))))))))))))))))))))))))))))))))))))))))))))))))))))))))))))))))))))))))))))))))))))))))))))))))))))))))))))))))))))))))))))))))))))))))))))) (state |.s.1.next| |.s.0.next| |.s.2.next| |.s.3.next| |main.x.next| |main.n.next| |main.y.next|))))
(assert (forall ((|.s.0| Bool) (|.s.2| Bool) (|.s.1| Bool) (|.s.0.next| Bool) (|.s.1.next| Bool) (|.s.2.next| Bool) (|.s.3.next| Bool) (|main.x.next| Int) (|main.x| Int) (|main.n.next| Int) (|main.n| Int) (|main.y.next| Int) (|main.y| Int) (|.inputVar.0| Int) (|.s.3| Bool)) (=> (state |.s.1| |.s.0| |.s.2| |.s.3| |main.x| |main.n| |main.y|) (let ((.def_19 (and .s.1 .s.0)))
(let ((.def_20 (and .s.2 .def_19)))
(let ((.def_21 (and .s.3 .def_20)))
(let ((.def_22 (not .def_21)))
.def_22)))))))
(check-sat)
